Version identifier: 22.1.0.0 | 2022-03-09 | 1a383f8ce
CPXPARAM_Threads                                 1
CPXPARAM_MIP_Strategy_VariableSelect             3
CPXPARAM_TimeLimit                               596.25666046799995
1 of 1 MIP starts provided solutions.
MIP start 'm1' defined initial solution with objective 281.0000.
Tried aggregator 1 time.
MIP Presolve eliminated 9 rows and 0 columns.
MIP Presolve modified 4 coefficients.
Reduced MIP has 2116 rows, 7500 columns, and 104124 nonzeros.
Reduced MIP has 7500 binaries, 0 generals, 0 SOSs, and 0 indicators.
Presolve time = 0.07 sec. (55.63 ticks)
Probing time = 0.01 sec. (6.76 ticks)
Tried aggregator 1 time.
Detecting symmetries...
Reduced MIP has 2116 rows, 7500 columns, and 104124 nonzeros.
Reduced MIP has 7500 binaries, 0 generals, 0 SOSs, and 0 indicators.
Presolve time = 0.08 sec. (59.84 ticks)
Probing time = 0.01 sec. (6.76 ticks)
Clique table members: 1194.
MIP emphasis: balance optimality and feasibility.
MIP search method: dynamic search.
Parallel mode: none, using 1 thread.
Root relaxation solution time = 1.89 sec. (2110.33 ticks)

        Nodes                                         Cuts/
   Node  Left     Objective  IInf  Best Integer    Best Bound    ItCnt     Gap

*     0+    0                          281.0000     7500.0000              --- 
      0     0      300.0000  1359      281.0000      300.0000     5807    6.76%
      0     0      300.0000   487      281.0000       Cuts: 5     8056    6.76%
      0     0      300.0000  1025      281.0000      Cuts: 11    13771    6.76%
      0     0      300.0000   704      281.0000      Cuts: 10    20299    6.76%
      0     0      300.0000   555      281.0000   ZeroHalf: 3    25660    6.76%
      0     0      300.0000   601      281.0000      Cuts: 12    30238    6.76%
Detecting symmetries...
Detecting symmetries...
      0     2      300.0000   409      281.0000      300.0000    30238    6.76%
Elapsed time = 124.86 sec. (137073.40 ticks, tree = 0.01 MB, solutions = 1)
      1     3      300.0000   703      281.0000      300.0000    39584    6.76%
      2     4      300.0000   660      281.0000      300.0000    45162    6.76%
      3     5      300.0000   705      281.0000      300.0000    50915    6.76%
      4     6      300.0000   661      281.0000      300.0000    51011    6.76%
      5     7      300.0000   644      281.0000      300.0000    51125    6.76%
      6     8      300.0000   627      281.0000      300.0000    51205    6.76%
      7     9      300.0000   620      281.0000      300.0000    51383    6.76%
      8    10      300.0000   621      281.0000      300.0000    51442    6.76%
      9    11      300.0000   774      281.0000      300.0000    56217    6.76%
     10    12      300.0000   737      281.0000      300.0000    61609    6.76%
Elapsed time = 141.70 sec. (155731.45 ticks, tree = 0.11 MB, solutions = 1)
     12    14      300.0000   844      281.0000      300.0000    67795    6.76%
     15    17      300.0000   618      281.0000      300.0000    73292    6.76%
     16    18      300.0000   702      281.0000      300.0000    77184    6.76%
     18    20      300.0000   628      281.0000      300.0000    78911    6.76%
     19    21      300.0000   674      281.0000      300.0000    87917    6.76%
     20    22      300.0000   636      281.0000      300.0000    91182    6.76%
     21    23      300.0000   849      281.0000      300.0000    96890    6.76%
     22    24      300.0000   785      281.0000      300.0000   101345    6.76%
     23    25      300.0000   687      281.0000      300.0000   105276    6.76%
     24    26      300.0000   662      281.0000      300.0000   117187    6.76%
Elapsed time = 171.64 sec. (187650.14 ticks, tree = 0.36 MB, solutions = 1)
     25    27      300.0000   592      281.0000      300.0000   126660    6.76%
     26    28      299.9689  1090      281.0000      300.0000   141202    6.76%
     28    30      300.0000   605      281.0000      300.0000   142599    6.76%
     29    31      300.0000   719      281.0000      300.0000   149530    6.76%
     30    32      300.0000   658      281.0000      300.0000   154014    6.76%
     31    33      300.0000   657      281.0000      300.0000   161130    6.76%
     34    36      300.0000   542      281.0000      300.0000   166845    6.76%
     35    37      300.0000   604      281.0000      300.0000   174606    6.76%
     37    39      300.0000   504      281.0000      300.0000   176567    6.76%
     38    40      300.0000   602      281.0000      300.0000   185911    6.76%
Elapsed time = 204.42 sec. (222796.58 ticks, tree = 0.58 MB, solutions = 1)
     40    42      299.9931  1130      281.0000      300.0000   202652    6.76%
     42    44      300.0000   763      281.0000      300.0000   212964    6.76%
     43    45      300.0000   502      281.0000      300.0000   217260    6.76%
     44    46      300.0000   902      281.0000      300.0000   224859    6.76%
     45    47      300.0000   629      281.0000      300.0000   228928    6.76%
     46    48      300.0000   807      281.0000      300.0000   239472    6.76%
     48    50      300.0000   581      281.0000      300.0000   242838    6.76%
     50    52      300.0000   791      281.0000      300.0000   252029    6.76%
     51    53      300.0000   633      281.0000      300.0000   257100    6.76%
     52    54      300.0000   571      281.0000      300.0000   261410    6.76%
Elapsed time = 247.84 sec. (268693.88 ticks, tree = 0.74 MB, solutions = 1)
     53    55      300.0000  1156      281.0000      300.0000   270799    6.76%
     55    57      300.0000  1171      281.0000      300.0000   289626    6.76%
     57    59      300.0000   554      281.0000      300.0000   290094    6.76%
     59    61      300.0000   836      281.0000      300.0000   296100    6.76%
     60    62      300.0000   541      281.0000      300.0000   296443    6.76%
     62    64      300.0000   567      281.0000      300.0000   299978    6.76%
     63    65      300.0000   597      281.0000      300.0000   304023    6.76%
     64    66      300.0000   734      281.0000      300.0000   310240    6.76%
     67    69      300.0000   577      281.0000      300.0000   310814    6.76%
     68    70      300.0000   461      281.0000      300.0000   332848    6.76%
Elapsed time = 272.74 sec. (293911.71 ticks, tree = 1.05 MB, solutions = 1)
     69    71      300.0000   700      281.0000      300.0000   341930    6.76%
     70    72      300.0000   370      281.0000      300.0000   343450    6.76%
     71    73      300.0000   637      281.0000      300.0000   352570    6.76%
     72    74      300.0000   428      281.0000      300.0000   358677    6.76%
     73    75      300.0000   468      281.0000      300.0000   366619    6.76%
     75    77      300.0000   433      281.0000      300.0000   367309    6.76%
     76    78      299.9665  1003      281.0000      300.0000   387505    6.76%
     78    80      300.0000   424      281.0000      300.0000   388071    6.76%
     80    82      300.0000   422      281.0000      300.0000   392492    6.76%
     81    83      300.0000   468      281.0000      300.0000   396299    6.76%
Elapsed time = 299.86 sec. (322830.01 ticks, tree = 1.24 MB, solutions = 1)
     82    84      300.0000   663      281.0000      300.0000   401502    6.76%
     83    85      300.0000   429      281.0000      300.0000   405178    6.76%
     84    86      299.9912   828      281.0000      300.0000   419813    6.76%
     85    87      300.0000   482      281.0000      300.0000   426527    6.76%
     86    88      300.0000   418      281.0000      300.0000   434154    6.76%
     87    89      299.9721   995      281.0000      300.0000   448352    6.76%
     88    90      300.0000   535      281.0000      300.0000   453551    6.76%
     89    91      300.0000   590      281.0000      300.0000   461468    6.76%
     91    93      300.0000   535      281.0000      300.0000   461478    6.76%
     92    94      300.0000   560      281.0000      300.0000   468447    6.76%
Elapsed time = 329.45 sec. (354065.07 ticks, tree = 1.41 MB, solutions = 1)
     94    96      300.0000   540      281.0000      300.0000   473448    6.76%
     95    97      299.9323   868      281.0000      300.0000   486070    6.76%
     96    98      299.9856   933      281.0000      300.0000   508119    6.76%
     97    99      300.0000   564      281.0000      300.0000   511582    6.76%
     98   100      300.0000   492      281.0000      300.0000   515326    6.76%
     99   101      299.9370   846      281.0000      300.0000   527071    6.76%
    100   102      300.0000   450      281.0000      300.0000   534835    6.76%
    101   103      300.0000   412      281.0000      300.0000   543703    6.76%
    102   104      300.0000   611      281.0000      300.0000   551433    6.76%
    103   105      299.9604   773      281.0000      300.0000   561204    6.76%
Elapsed time = 363.50 sec. (389162.70 ticks, tree = 1.57 MB, solutions = 1)
    104   106      300.0000   364      281.0000      300.0000   568685    6.76%
    105   107      300.0000   362      281.0000      300.0000   575225    6.76%
    106   108      300.0000   410      281.0000      300.0000   582950    6.76%
    107   109      299.9529   776      281.0000      300.0000   592825    6.76%
    109   111      300.0000   341      281.0000      300.0000   609707    6.76%
    110   112      299.8876   757      281.0000      300.0000   621399    6.76%
    111   113      300.0000   658      281.0000      300.0000   639639    6.76%
    112   114      300.0000   432      281.0000      300.0000   646743    6.76%
    113   115      300.0000   402      281.0000      300.0000   657044    6.76%
    114   116      300.0000   596      281.0000      300.0000   679281    6.76%
Elapsed time = 396.33 sec. (422188.52 ticks, tree = 1.65 MB, solutions = 1)
    115   117      300.0000   398      281.0000      300.0000   685940    6.76%
    116   118      299.9746   673      281.0000      300.0000   696716    6.76%
    117   119      300.0000   395      281.0000      300.0000   719660    6.76%
    118   120      300.0000   417      281.0000      300.0000   726093    6.76%
    119   121      299.8980   669      281.0000      300.0000   738798    6.76%
    120   122      300.0000   377      281.0000      300.0000   746286    6.76%
    121   123      300.0000   323      281.0000      300.0000   755653    6.76%
    122   124      299.6664   604      281.0000      300.0000   763751    6.76%
    123   125      300.0000   446      281.0000      300.0000   770889    6.76%
    127   129      300.0000   351      281.0000      300.0000   782892    6.76%
Elapsed time = 447.19 sec. (472039.99 ticks, tree = 1.87 MB, solutions = 1)
    130   132      300.0000   318      281.0000      300.0000   795257    6.76%
    133   135      299.6889   654      281.0000      300.0000   812979    6.76%
    136   138      299.7333   653      281.0000      300.0000   831910    6.76%
    137   139      299.9962   594      281.0000      300.0000   843321    6.76%
    139   141      299.9184   533      281.0000      300.0000   857795    6.76%
    143   145      299.0000   636      281.0000      300.0000   868229    6.76%
    149   151      299.0000   658      281.0000      300.0000   874711    6.76%
    155   157      299.0000   672      281.0000      300.0000   885556    6.76%
    163   165      299.9796   559      281.0000      300.0000   891108    6.76%
    168   170      299.9796   563      281.0000      300.0000   898832    6.76%
Elapsed time = 495.27 sec. (520523.20 ticks, tree = 2.62 MB, solutions = 1)
    174   176      299.9796   546      281.0000      300.0000   905453    6.76%
    180   182      299.0000   483      281.0000      300.0000   913183    6.76%
    187   189      299.0000   589      281.0000      300.0000   923109    6.76%
    192   194      299.0000   506      281.0000      300.0000   933692    6.76%
    198   200      299.0000   581      281.0000      300.0000   942941    6.76%
    200   202      299.0000   558      281.0000      300.0000   945513    6.76%
    206   208      299.0000   568      281.0000      300.0000   954034    6.76%
    214   216      299.9777   587      281.0000      300.0000   959793    6.76%
    223   225      299.9767   546      281.0000      300.0000   964660    6.76%
    233   235      299.0000   445      281.0000      300.0000   968770    6.76%
Elapsed time = 539.29 sec. (564753.13 ticks, tree = 3.89 MB, solutions = 1)
    239   241      299.0000   585      281.0000      300.0000   976472    6.76%
    240   242      299.9743   517      281.0000      300.0000   976562    6.76%
    245   247      299.0000   444      281.0000      300.0000   985064    6.76%
    253   255      299.0000   455      281.0000      300.0000   993595    6.76%
    260   262      299.0000   525      281.0000      300.0000  1002344    6.76%
    268   270      299.9714   503      281.0000      300.0000  1008030    6.76%
    274   276      299.0000   593      281.0000      300.0000  1017106    6.76%
    282   284      299.0000   549      281.0000      300.0000  1023908    6.76%

Clique cuts applied:  6
Zero-half cuts applied:  10
Lift and project cuts applied:  1

Root node processing (before b&c):
  Real time             =  124.76 sec. (136962.38 ticks)
Sequential b&c:
  Real time             =  471.50 sec. (483249.93 ticks)
                          ------------
Total (root+branch&cut) =  596.26 sec. (620212.32 ticks)
Primal:	281
Dual:	300
Status:	Feasible
Time:	596.21
Sequence:
	20
	10
	12
	6
	8
	14
	5
	12
	9
	5
	14
	10
	12
	6
	18
	4
	18
	5
	17
	5
	15
	5
	12
	10
	18
	0
	20
	5
	12
	10
	18
	0
	20
	5
	17
	5
	12
	9
	12
	5
	14
	8
	15
	5
	12
	10
	18
	0
	20
	5
	12
	8
	20
	1
	13
	8
	5
	14
	5
	16
	5
	13
	8
	12
	5
	14
	8
	19
	1
	18
	10
	12
	5
	17
	6
	5
	12
	10
	20
	0
	18
	5
	17
	5
	20
	3
	18
	5
	4
	18
	6
	17
	5
	5
	16
	7
	20
	2
	18
	5
	15
	4
	18
	5
	12
	9
	14
	5
	10
	12
	5
	10
	12
	7
	16
	5
	5
	17
	7
	12
	5
	16
	5
	18
	3
	20
	1
	18
	8
	12
	7
	8
	12
	5
	8
	12
	7
	12
	5
	20
	2
	20
	5
	12
	9
	5
	12
	10
	20
	0
	18
	5
	12
	8
	18
	1
	18
	8
	14
	6
	14
	8
	5
	12
	8
	18
	1
	20
	9
	12
	5
	18
	4
	19
	5
	14
	8
	20
	0
	18
	8
	12
	5
	20
	0
	20
	8
	12
	5
	20
	3
	18
	5
	17
	5
	12
	10
	13
	5
	18
	4
	18
	5
	16
	7
	18
	4
	18
	5
	0
	20
	5
	14
	5
	8
	14
	5
	13
	10
	18
	1
	18
	9
	14
	5
	5
	17
	6
	20
	2
	18
	5
	16
	7
	20
	2
	18
	5
	17
	5
	20
	2
	18
	7
	12
	5
	20
	2
	20
	5
	16
	7
	18
	4
	18
	5
	14
	8
	12
	6
	16
	5
	20
	2
	20
	5
	13
	8
	18
	1
	18
	9
	14
	5
	8
	14
	5
	5
	12
	11
	20
